
Gurobi 9.5.0 (linux64) logging started Wed Nov 15 11:40:44 2023

Set parameter LogFile to value "/lustre1/scratch/348/vsc34888/JointResearch/05.Models/06.Benchmarking/D.Representative_days_based_on_RES_and_Demand/RTS24_mod1_ByStages_nc10/openStarNet_RTS24_mod1_ByStages_nc10.log"
Set parameter Method to value 2
Set parameter MIPFocus to value 1
Set parameter Presolve to value 2
Set parameter RINS to value 100
Set parameter MIPGap to value 0.01
Set parameter Threads to value 36
Set parameter TimeLimit to value 604800
Set parameter IterationLimit to value 760000000
Gurobi Optimizer version 9.5.0 build v9.5.0rc5 (linux64)
Thread count: 36 physical cores, 36 logical processors, using up to 36 threads
Optimize a model with 4264 rows, 2725 columns and 10570 nonzeros
Model fingerprint: 0xdf5dabc3
Variable types: 2709 continuous, 16 integer (16 binary)
Coefficient statistics:
  Matrix range     [1e-02, 4e+03]
  Objective range  [1e+00, 1e+00]
  Bounds range     [3e-04, 2e+00]
  RHS range        [3e-04, 1e+00]
Presolve removed 2801 rows and 1376 columns
Presolve time: 0.01s
Presolved: 1463 rows, 1349 columns, 5155 nonzeros
Variable types: 1333 continuous, 16 integer (16 binary)
Found heuristic solution: objective 221.2675921
Root relaxation presolved: 1463 rows, 1349 columns, 5155 nonzeros

Root barrier log...

Ordering time: 0.01s

Barrier statistics:
 AA' NZ     : 2.156e+04
 Factor NZ  : 1.211e+05 (roughly 2 MB of memory)
 Factor Ops : 1.620e+07 (less than 1 second per iteration)
 Threads    : 36

                  Objective                Residual
Iter       Primal          Dual         Primal    Dual     Compl     Time
   0   7.27660745e+05 -9.34405525e+07  5.86e+00 7.50e+02  6.09e+04     0s
   1   4.48846528e+04 -1.90684978e+07  2.57e-01 2.71e-10  6.26e+03     0s
   2   2.13096672e+04 -1.43606468e+06  4.33e-02 8.09e-11  4.39e+02     0s
   3   1.26030945e+04 -1.41959758e+05  1.50e-03 5.77e-11  4.36e+01     0s
   4   3.69052830e+03 -2.03546014e+04  1.23e-04 1.46e-11  6.76e+00     0s
   5   7.44468897e+02 -5.46385275e+03  1.19e-05 1.09e-11  1.75e+00     0s
   6   3.85464728e+02 -1.75465173e+03  1.08e-06 1.46e-11  6.02e-01     0s
   7   2.63081809e+02 -5.43913885e+02  3.45e-07 7.28e-12  2.27e-01     0s
   8   1.64010280e+02 -1.71633060e+02  7.98e-08 7.28e-12  9.44e-02     0s
   9   1.26499947e+02 -1.09085429e+01  3.38e-08 7.28e-12  3.86e-02     0s
  10   1.02124719e+02  6.26009862e+01  9.41e-09 3.64e-12  1.11e-02     0s
  11   9.62939543e+01  7.76596827e+01  4.56e-09 1.46e-11  5.24e-03     0s
  12   9.20432823e+01  8.64170511e+01  9.49e-10 1.46e-11  1.58e-03     0s
  13   9.09088916e+01  9.00357553e+01  2.17e-10 3.64e-12  2.46e-04     0s
  14   9.06381268e+01  9.03242141e+01  4.47e-11 7.28e-12  8.83e-05     0s
  15   9.05461477e+01  9.04665380e+01  5.82e-12 3.64e-12  2.24e-05     0s
  16   9.05374316e+01  9.05319749e+01  7.79e-12 1.46e-11  1.53e-06     0s
  17   9.05361002e+01  9.05360751e+01  3.53e-12 3.64e-12  7.06e-09     0s
  18   9.05360900e+01  9.05360900e+01  5.16e-12 7.28e-12  7.06e-12     0s

Barrier solved model in 18 iterations and 0.25 seconds (0.05 work units)
Optimal objective 9.05360900e+01


Root relaxation: objective 9.053609e+01, 155 iterations, 0.22 seconds (0.03 work units)

    Nodes    |    Current Node    |     Objective Bounds      |     Work
 Expl Unexpl |  Obj  Depth IntInf | Incumbent    BestBd   Gap | It/Node Time

     0     0   90.53609    0   12  221.26759   90.53609  59.1%     -    0s
H    0     0                     122.1432240   90.53609  25.9%     -    0s
     0     0   96.60634    0   11  122.14322   96.60634  20.9%     -    0s
H    0     0                     108.8354578   96.60634  11.2%     -    0s
     0     0   96.98461    0   10  108.83546   96.98461  10.9%     -    0s
     0     0   97.77707    0   10  108.83546   97.77707  10.2%     -    0s
     0     0   97.77707    0   10  108.83546   97.77707  10.2%     -    0s
     0     0  100.56236    0    9  108.83546  100.56236  7.60%     -    0s
     0     0  102.12265    0   10  108.83546  102.12265  6.17%     -    0s
     0     0  102.24215    0   10  108.83546  102.24215  6.06%     -    0s
     0     0  103.10042    0   10  108.83546  103.10042  5.27%     -    0s
     0     0  103.63798    0   10  108.83546  103.63798  4.78%     -    0s
     0     0  104.58662    0   10  108.83546  104.58662  3.90%     -    0s
     0     2  104.58662    0   10  108.83546  104.58662  3.90%     -    0s

Cutting planes:
  Gomory: 8
  Implied bound: 10
  MIR: 46

Explored 24 nodes (782 simplex iterations) in 0.69 seconds (0.37 work units)
Thread count was 36 (of 36 available processors)

Solution count 3: 108.835 122.143 221.268 

Optimal solution found (tolerance 1.00e-02)
Best objective 1.088354578431e+02, best bound 1.083687384402e+02, gap 0.4288%

Gurobi 9.5.0 (linux64) logging started Wed Nov 15 11:40:45 2023

Set parameter LogFile to value "/lustre1/scratch/348/vsc34888/JointResearch/05.Models/06.Benchmarking/D.Representative_days_based_on_RES_and_Demand/RTS24_mod1_ByStages_nc10/openStarNet_RTS24_mod1_ByStages_nc10.log"
Set parameter Method to value 2
Set parameter MIPFocus to value 1
Set parameter Presolve to value 2
Set parameter RINS to value 100
Set parameter MIPGap to value 0.01
Set parameter Threads to value 36
Set parameter TimeLimit to value 604800
Set parameter IterationLimit to value 760000000
No parameters matching 'relax_integrality' found
Gurobi Optimizer version 9.5.0 build v9.5.0rc5 (linux64)
Thread count: 36 physical cores, 36 logical processors, using up to 36 threads
Optimize a model with 4264 rows, 2709 columns and 9850 nonzeros
Model fingerprint: 0xe3be446b
Coefficient statistics:
  Matrix range     [1e-02, 4e+03]
  Objective range  [1e+00, 1e+00]
  Bounds range     [3e-04, 2e+00]
  RHS range        [3e-04, 3e+01]
Presolve removed 3252 rows and 1200 columns
Presolve time: 0.00s
Presolved: 1012 rows, 1520 columns, 3775 nonzeros

Ordering time: 0.00s

Barrier statistics:
 AA' NZ     : 2.615e+03
 Factor NZ  : 1.088e+04 (roughly 1 MB of memory)
 Factor Ops : 1.631e+05 (less than 1 second per iteration)
 Threads    : 1

                  Objective                Residual
Iter       Primal          Dual         Primal    Dual     Compl     Time
   0   5.58016027e+05 -8.86140110e+07  4.30e+00 7.52e+02  5.87e+04     0s
   1   5.39213965e+04 -1.10387464e+07  2.11e-01 3.93e-11  4.91e+03     0s
   2   3.16705283e+04 -9.01876930e+05  2.72e-02 2.83e-11  3.78e+02     0s
   3   1.29953141e+04 -1.06793094e+05  1.28e-03 1.46e-11  4.62e+01     0s
   4   2.13351529e+03 -1.09577304e+04  8.41e-05 1.40e-11  5.04e+00     0s
   5   4.00105585e+02 -2.49983072e+03  7.57e-07 2.08e-11  1.12e+00     0s
   6   2.52026410e+02 -5.90208632e+02  1.33e-08 7.28e-12  3.24e-01     0s
   7   1.83374038e+02 -2.41737797e+02  4.34e-09 1.46e-11  1.64e-01     0s
   8   1.41378831e+02  3.49832951e-01  9.84e-10 7.28e-12  5.42e-02     0s
   9   1.17100296e+02  8.68926934e+01  1.58e-10 7.28e-12  1.16e-02     0s
  10   1.13381497e+02  1.06793960e+02  8.44e-11 1.46e-11  2.53e-03     0s
  11   1.09715325e+02  1.08541905e+02  1.72e-11 7.28e-12  4.51e-04     0s
  12   1.09009363e+02  1.08822414e+02  2.86e-11 1.46e-11  7.19e-05     0s
  13   1.08835887e+02  1.08834270e+02  1.55e-10 7.28e-12  6.22e-07     0s
  14   1.08835458e+02  1.08835457e+02  5.44e-12 1.46e-11  6.22e-10     0s
  15   1.08835458e+02  1.08835458e+02  2.49e-12 3.64e-12  6.22e-13     0s

Barrier solved model in 15 iterations and 0.02 seconds (0.01 work units)
Optimal objective 1.08835458e+02

Crossover log...

     135 DPushes remaining with DInf 0.0000000e+00                 0s
       0 DPushes remaining with DInf 0.0000000e+00                 0s

      41 PPushes remaining with PInf 0.0000000e+00                 0s
       0 PPushes remaining with PInf 0.0000000e+00                 0s

  Push phase complete: Pinf 0.0000000e+00, Dinf 1.3344560e-12      0s

Iteration    Objective       Primal Inf.    Dual Inf.      Time
      47    1.0883546e+02   0.000000e+00   0.000000e+00      0s

Use crossover to convert LP symmetric solution to basic solution...
Crossover log...

       0 DPushes remaining with DInf 0.0000000e+00                 0s

      24 PPushes remaining with PInf 0.0000000e+00                 0s
       0 PPushes remaining with PInf 0.0000000e+00                 0s

  Push phase complete: Pinf 0.0000000e+00, Dinf 1.1847121e-12      0s

Iteration    Objective       Primal Inf.    Dual Inf.      Time
      76    1.0883546e+02   0.000000e+00   0.000000e+00      0s

Solved in 76 iterations and 0.03 seconds (0.02 work units)
Optimal objective  1.088354578e+02

Gurobi 9.5.0 (linux64) logging started Wed Nov 15 17:08:37 2023

Set parameter LogFile to value "/lustre1/scratch/348/vsc34888/JointResearch/05.Models/06.Benchmarking/D.Representative_days_based_on_RES_and_Demand/RTS24_mod1_ByStages_nc10/openStarNet_RTS24_mod1_ByStages_nc10.log"
Set parameter Method to value 2
Set parameter MIPFocus to value 1
Set parameter Presolve to value 2
Set parameter RINS to value 100
Set parameter MIPGap to value 0.01
Set parameter Threads to value 36
Set parameter TimeLimit to value 604800
Set parameter IterationLimit to value 760000000
Gurobi Optimizer version 9.5.0 build v9.5.0rc5 (linux64)
Thread count: 36 physical cores, 36 logical processors, using up to 36 threads
Optimize a model with 5276 rows, 3001 columns and 14135 nonzeros
Model fingerprint: 0x8dd58051
Variable types: 2962 continuous, 39 integer (39 binary)
Coefficient statistics:
  Matrix range     [1e-02, 4e+03]
  Objective range  [1e+00, 1e+00]
  Bounds range     [3e-04, 2e+00]
  RHS range        [3e-04, 1e+00]
Presolve removed 2768 rows and 1343 columns
Presolve time: 0.02s
Presolved: 2508 rows, 1658 columns, 8736 nonzeros
Variable types: 1619 continuous, 39 integer (39 binary)
Found heuristic solution: objective 221.2675921
Root relaxation presolved: 2508 rows, 1658 columns, 8736 nonzeros

Root barrier log...

Ordering time: 0.03s

Barrier statistics:
 AA' NZ     : 5.116e+04
 Factor NZ  : 3.878e+05 (roughly 5 MB of memory)
 Factor Ops : 8.830e+07 (less than 1 second per iteration)
 Threads    : 36

                  Objective                Residual
Iter       Primal          Dual         Primal    Dual     Compl     Time
   0   5.29128849e+05 -2.89109522e+07  3.71e+00 4.67e+02  1.45e+04     0s
   1   4.79527586e+04 -6.91204355e+06  2.66e-01 3.76e-11  1.68e+03     0s
   2   1.41517312e+04 -5.56855506e+05  6.39e-03 4.85e-11  1.12e+02     0s
   3   3.07170895e+03 -5.67231476e+04  3.29e-13 8.25e-12  1.15e+01     0s
   4   5.18581717e+02 -5.31598175e+03  4.84e-13 3.64e-12  1.13e+00     0s
   5   3.52345784e+02 -1.97728099e+03  3.71e-13 3.64e-12  4.49e-01     0s
   6   2.43368881e+02 -5.99601107e+02  1.83e-13 1.82e-12  1.63e-01     0s
   7   1.84805919e+02 -2.10640664e+02  9.06e-14 1.82e-12  7.63e-02     0s
   8   1.21798274e+02 -1.28734921e+01  2.03e-13 3.64e-12  2.60e-02     0s
   9   1.04632215e+02  6.02865759e+01  2.07e-13 1.82e-12  8.55e-03     0s
  10   9.80803032e+01  8.51951515e+01  4.38e-13 1.82e-12  2.48e-03     0s
  11   9.29552548e+01  8.84341970e+01  2.38e-12 1.82e-12  8.72e-04     0s
  12   9.17495565e+01  8.98649052e+01  3.71e-12 1.82e-12  3.63e-04     0s
  13   9.10267825e+01  9.02840515e+01  7.39e-12 1.82e-12  1.43e-04     0s
  14   9.07269356e+01  9.04041397e+01  2.88e-11 1.82e-12  6.22e-05     0s
  15   9.05037131e+01  9.04548253e+01  1.98e-11 1.82e-12  9.43e-06     0s
  16   9.04850300e+01  9.04830915e+01  7.46e-12 1.82e-12  3.74e-07     0s
  17   9.04841199e+01  9.04841198e+01  2.00e-12 1.82e-12  1.95e-11     0s

Barrier solved model in 17 iterations and 0.35 seconds (0.09 work units)
Optimal objective 9.04841199e+01


Root relaxation: objective 9.048412e+01, 200 iterations, 0.32 seconds (0.06 work units)

    Nodes    |    Current Node    |     Objective Bounds      |     Work
 Expl Unexpl |  Obj  Depth IntInf | Incumbent    BestBd   Gap | It/Node Time

     0     0   90.48412    0   13  221.26759   90.48412  59.1%     -    0s
H    0     0                     122.1432240   90.48412  25.9%     -    0s
     0     0   97.01982    0   12  122.14322   97.01982  20.6%     -    0s
     0     0   97.69231    0   11  122.14322   97.69231  20.0%     -    0s
     0     0   97.69231    0   11  122.14322   97.69231  20.0%     -    0s
     0     0   98.92085    0   11  122.14322   98.92085  19.0%     -    0s
H    0     0                     109.1088193   98.92085  9.34%     -    0s
     0     0   99.75543    0   12  109.10882   99.75543  8.57%     -    0s
H    0     0                     108.8354578  101.74810  6.51%     -    0s
     0     0  101.98749    0   11  108.83546  101.98749  6.29%     -    0s
     0     0  102.29426    0   11  108.83546  102.29426  6.01%     -    0s
     0     0  103.19395    0   11  108.83546  103.19395  5.18%     -    0s
     0     0  103.63798    0   11  108.83546  103.63798  4.78%     -    0s
     0     0  103.68530    0   11  108.83546  103.68530  4.73%     -    0s
     0     2  103.68530    0   11  108.83546  103.68530  4.73%     -    0s

Cutting planes:
  Gomory: 7
  Implied bound: 8
  MIR: 59

Explored 95 nodes (2805 simplex iterations) in 1.07 seconds (0.60 work units)
Thread count was 36 (of 36 available processors)

Solution count 4: 108.835 109.109 122.143 221.268 

Optimal solution found (tolerance 1.00e-02)
Best objective 1.088354578432e+02, best bound 1.079819702424e+02, gap 0.7842%

Gurobi 9.5.0 (linux64) logging started Wed Nov 15 17:08:39 2023

Set parameter LogFile to value "/lustre1/scratch/348/vsc34888/JointResearch/05.Models/06.Benchmarking/D.Representative_days_based_on_RES_and_Demand/RTS24_mod1_ByStages_nc10/openStarNet_RTS24_mod1_ByStages_nc10.log"
Set parameter Method to value 2
Set parameter MIPFocus to value 1
Set parameter Presolve to value 2
Set parameter RINS to value 100
Set parameter MIPGap to value 0.01
Set parameter Threads to value 36
Set parameter TimeLimit to value 604800
Set parameter IterationLimit to value 760000000
No parameters matching 'relax_integrality' found
Gurobi Optimizer version 9.5.0 build v9.5.0rc5 (linux64)
Thread count: 36 physical cores, 36 logical processors, using up to 36 threads
Optimize a model with 5276 rows, 2962 columns and 12380 nonzeros
Model fingerprint: 0x85db2a08
Coefficient statistics:
  Matrix range     [1e-02, 4e+03]
  Objective range  [1e+00, 1e+00]
  Bounds range     [3e-04, 2e+00]
  RHS range        [3e-04, 3e+01]
Presolve removed 4253 rows and 1453 columns
Presolve time: 0.01s
Presolved: 1023 rows, 1531 columns, 3808 nonzeros

Ordering time: 0.00s

Barrier statistics:
 AA' NZ     : 2.649e+03
 Factor NZ  : 1.100e+04 (roughly 1 MB of memory)
 Factor Ops : 1.650e+05 (less than 1 second per iteration)
 Threads    : 1

                  Objective                Residual
Iter       Primal          Dual         Primal    Dual     Compl     Time
   0   5.70064548e+05 -8.87622616e+07  4.39e+00 7.52e+02  5.91e+04     0s
   1   5.38834525e+04 -1.13126788e+07  2.10e-01 4.02e-11  4.99e+03     0s
   2   3.17173864e+04 -8.87946224e+05  2.76e-02 3.22e-11  3.70e+02     0s
   3   1.27325560e+04 -1.03197923e+05  1.19e-03 2.91e-11  4.44e+01     0s
   4   2.09340440e+03 -1.02869742e+04  8.32e-05 4.63e-11  4.73e+00     0s
   5   3.94378046e+02 -2.49172606e+03  6.80e-07 3.17e-11  1.10e+00     0s
   6   2.44941667e+02 -6.98547396e+02  1.28e-08 9.89e-12  3.61e-01     0s
   7   1.83817360e+02 -2.62230630e+02  4.19e-09 4.89e-12  1.71e-01     0s
   8   1.41701339e+02 -1.06142402e+01  9.17e-10 7.28e-12  5.82e-02     0s
   9   1.17859742e+02  8.42964046e+01  1.54e-10 7.28e-12  1.28e-02     0s
  10   1.13224081e+02  1.06668224e+02  7.22e-11 7.28e-12  2.51e-03     0s
  11   1.09739816e+02  1.08501430e+02  1.55e-11 2.91e-11  4.73e-04     0s
  12   1.09002510e+02  1.08823705e+02  2.47e-11 7.28e-12  6.84e-05     0s
  13   1.08835879e+02  1.08834283e+02  2.27e-10 1.46e-11  6.10e-07     0s
  14   1.08835458e+02  1.08835457e+02  1.72e-11 3.64e-12  6.10e-10     0s
  15   1.08835458e+02  1.08835458e+02  1.66e-11 1.46e-11  6.10e-13     0s

Barrier solved model in 15 iterations and 0.02 seconds (0.01 work units)
Optimal objective 1.08835458e+02

Crossover log...

     136 DPushes remaining with DInf 0.0000000e+00                 0s
       0 DPushes remaining with DInf 0.0000000e+00                 0s

      43 PPushes remaining with PInf 0.0000000e+00                 0s
       0 PPushes remaining with PInf 0.0000000e+00                 0s

  Push phase complete: Pinf 0.0000000e+00, Dinf 9.6621322e-13      0s

Iteration    Objective       Primal Inf.    Dual Inf.      Time
      48    1.0883546e+02   0.000000e+00   0.000000e+00      0s

Use crossover to convert LP symmetric solution to basic solution...
Crossover log...

       0 DPushes remaining with DInf 0.0000000e+00                 0s

      24 PPushes remaining with PInf 0.0000000e+00                 0s
       0 PPushes remaining with PInf 0.0000000e+00                 0s

  Push phase complete: Pinf 0.0000000e+00, Dinf 2.0385924e-12      0s

Iteration    Objective       Primal Inf.    Dual Inf.      Time
      77    1.0883546e+02   0.000000e+00   0.000000e+00      0s

Solved in 77 iterations and 0.03 seconds (0.02 work units)
Optimal objective  1.088354578e+02
